DIMACS2
20 288 311 134 283 82 143 278 128 153 163 54 260 155 1 64 102 33 51 52 192
p edge 320 1392
e 0 58 1.0
e 1 12 39.0
e 1 0 4.0
e 1 286 3.0
e 1 304 33.0
e 1 72 9.0
e 1 51 33.0
e 1 150 44.0
e 1 270 30.0
e 1 130 33.0
e 1 85 2.0
e 1 86 45.0
e 1 165 3.0
e 1 35 20.0
e 1 54 27.0
e 1 157 18.0
e 1 29 26.0
e 1 131 23.0
e 1 280 8.0
e 1 218 39.0
e 1 232 36.0
e 1 243 15.0
e 1 5 22.0
e 1 219 42.0
e 1 271 1.0
e 1 186 26.0
e 1 249 33.0
e 1 93 19.0
e 1 132 33.0
e 1 273 7.0
e 1 288 21.0
e 1 40 10.0
e 1 233 35.0
e 1 84 9.0
e 1 52 29.0
e 1 252 27.0
e 1 70 6.0
e 1 234 11.0
e 1 110 26.0
e 1 196 28.0
e 1 272 13.0
e 1 214 15.0
e 1 73 9.0
e 1 48 36.0
e 1 36 23.0
e 1 210 38.0
e 1 251 31.0
e 1 206 45.0
e 2 230 1.0
e 3 29 1.0
e 4 299 1.0
e 4 1 44.0
e 4 292 1.0
e 4 206 6.0
e 5 283 21.0
e 5 248 3.0
e 5 216 4.0
e 5 39 5.0
e 5 296 1.0
e 6 107 1.0
e 6 156 1.0
e 6 125 2.0
e 7 250 1.0
e 8 111 1.0
e 9 83 1.0
e 9 284 1.0
e 10 109 1.0
e 11 245 2.0
e 11 139 4.0
e 11 193 3.0
e 11 46 6.0
e 11 214 1.0
e 11 130 6.0
e 12 25 1.0
e 12 30 2.0
e 12 4 2.0
e 13 3 1.0
e 14 66 3.0
e 14 111 3.0
e 14 160 1.0
e 14 107 5.0
e 14 212 3.0
e 14 281 1.0
e 14 152 5.0
e 15 242 1.0
e 15 110 2.0
e 15 286 1.0
e 16 57 1.0
e 16 73 1.0
e 17 46 1.0
e 18 32 1.0
e 18 163 4.0
e 19 164 1.0
e 20 311 18.0
e 20 278 48.0
e 20 294 6.0
e 20 126 2.0
e 20 57 8.0
e 20 9 9.0
e 20 206 8.0
e 20 291 8.0
e 20 149 3.0
e 20 154 1.0
e 20 194 3.0
e 20 307 1.0
e 20 287 1.0
e 21 313 1.0
e 21 275 1.0
e 22 197 1.0
e 22 181 1.0
e 23 185 1.0
e 23 224 1.0
e 24 204 1.0
e 24 312 2.0
e 25 80 1.0
e 25 143 6.0
e 25 210 1.0
e 26 11 1.0
e 27 36 2.0
e 28 225 1.0
e 28 49 1.0
e 28 31 1.0
e 28 260 29.0
e 29 125 1.0
e 30 10 1.0
e 30 225 1.0
e 31 76 1.0
e 32 267 1.0
e 32 122 1.0
e 32 244 2.0
e 32 76 3.0
e 33 41 24.0
e 33 227 43.0
e 33 187 1.0
e 33 162 31.0
e 33 295 9.0
e 33 182 49.0
e 33 115 34.0
e 33 218 31.0
e 33 183 38.0
e 33 185 47.0
e 33 136 29.0
e 33 192 11.0
e 33 256 38.0
e 33 299 31.0
e 33 98 31.0
e 33 288 21.0
e 33 307 32.0
e 33 274 46.0
e 33 215 24.0
e 33 67 26.0
e 33 244 9.0
e 33 164 23.0
e 33 160 18.0
e 33 306 42.0
e 33 228 39.0
e 33 107 1.0
e 33 126 9.0
e 33 241 42.0
e 33 76 15.0
e 33 82 43.0
e 33 257 40.0
e 33 243 25.0
e 33 74 21.0
e 33 188 40.0
e 33 138 2.0
e 33 258 3.0
e 33 55 8.0
e 33 170 46.0
e 33 21 8.0
e 33 213 33.0
e 33 201 2.0
e 33 34 9.0
e 33 253 29.0
e 33 214 6.0
e 33 22 25.0
e 33 153 20.0
e 33 50 23.0
e 33 1 24.0
e 34 77 1.0
e 35 136 1.0
e 36 102 47.0
e 36 311 28.0
e 36 302 1.0
e 36 96 1.0
e 36 219 2.0
e 37 271 1.0
e 37 78 1.0
e 37 301 1.0
e 38 242 1.0
e 39 97 1.0
e 39 303 1.0
e 40 136 1.0
e 41 233 1.0
e 42 226 1.0
e 43 174 1.0
e 43 228 1.0
e 43 136 1.0
e 43 57 1.0
e 44 280 1.0
e 44 184 1.0
e 45 119 1.0
e 46 172 1.0
e 47 124 1.0
e 47 53 1.0
e 47 292 1.0
e 48 283 32.0
e 48 246 3.0
e 48 30 5.0
e 48 67 1.0
e 48 234 4.0
e 48 138 6.0
e 49 70 1.0
e 49 216 2.0
e 49 147 2.0
e 50 3 1.0
e 51 96 24.0
e 51 126 6.0
e 51 199 9.0
e 51 130 49.0
e 51 57 49.0
e 51 0 18.0
e 51 85 38.0
e 51 8 49.0
e 51 314 5.0
e 51 187 44.0
e 51 158 25.0
e 51 167 9.0
e 51 55 15.0
e 51 58 29.0
e 51 143 16.0
e 51 175 41.0
e 51 297 18.0
e 51 179 33.0
e 51 6 22.0
e 51 64 21.0
e 51 104 9.0
e 51 247 24.0
e 51 295 20.0
e 51 275 38.0
e 51 233 19.0
e 51 288 33.0
e 51 245 37.0
e 51 112 25.0
e 51 293 18.0
e 51 194 49.0
e 51 234 48.0
e 51 108 5.0
e 51 264 35.0
e 51 265 33.0
e 51 267 21.0
e 51 195 25.0
e 51 260 4.0
e 51 292 29.0
e 51 25 48.0
e 51 248 43.0
e 51 34 22.0
e 51 254 30.0
e 51 196 6.0
e 51 132 11.0
e 51 135 42.0
e 51 229 21.0
e 51 300 37.0
e 52 152 48.0
e 52 295 18.0
e 52 279 22.0
e 52 53 30.0
e 52 266 11.0
e 52 206 16.0
e 52 172 35.0
e 52 133 12.0
e 52 278 23.0
e 52 46 14.0
e 52 35 39.0
e 52 5 22.0
e 52 276 19.0
e 52 199 6.0
e 52 116 6.0
e 52 282 45.0
e 52 296 17.0
e 52 181 18.0
e 52 222 34.0
e 52 141 45.0
e 52 281 38.0
e 52 71 43.0
e 52 102 40.0
e 52 153 8.0
e 52 132 38.0
e 52 150 30.0
e 52 60 3.0
e 52 14 42.0
e 52 166 26.0
e 52 161 8.0
e 52 22 22.0
e 52 26 33.0
e 52 198 22.0
e 52 97 43.0
e 52 126 34.0
e 52 175 22.0
e 52 184 19.0
e 52 236 48.0
e 52 284 48.0
e 52 108 35.0
e 52 224 41.0
e 52 162 35.0
e 52 311 36.0
e 52 101 3.0
e 52 64 43.0
e 52 17 4.0
e 53 73 1.0
e 53 188 2.0
e 54 181 11.0
e 54 136 2.0
e 54 20 34.0
e 54 200 24.0
e 54 239 6.0
e 54 73 22.0
e 54 231 34.0
e 54 201 1.0
e 54 121 11.0
e 54 152 32.0
e 54 172 25.0
e 54 153 10.0
e 54 203 29.0
e 54 199 15.0
e 54 301 34.0
e 54 306 32.0
e 54 4 20.0
e 54 154 42.0
e 54 90 34.0
e 54 296 10.0
e 54 18 8.0
e 54 103 35.0
e 54 267 38.0
e 54 69 9.0
e 54 65 48.0
e 54 70 16.0
e 54 168 8.0
e 54 24 16.0
e 54 14 33.0
e 54 13 17.0
e 54 254 3.0
e 54 85 29.0
e 54 6 6.0
e 54 202 3.0
e 54 288 39.0
e 54 82 29.0
e 54 25 36.0
e 54 291 4.0
e 54 142 41.0
e 54 173 46.0
e 54 316 22.0
e 54 165 6.0
e 54 40 49.0
e 54 205 15.0
e 54 307 23.0
e 54 51 27.0
e 55 59 1.0
e 56 27 1.0
e 56 178 1.0
e 57 203 1.0
e 58 255 1.0
e 59 275 1.0
e 60 287 1.0
e 61 263 1.0
e 62 44 1.0
e 62 123 2.0
e 62 147 2.0
e 62 280 1.0
e 63 195 2.0
e 63 284 2.0
e 63 253 2.0
e 63 276 1.0
e 64 221 4.0
e 64 54 24.0
e 64 279 21.0
e 64 29 1.0
e 64 6 25.0
e 64 113 24.0
e 64 106 17.0
e 64 175 6.0
e 64 179 17.0
e 64 118 40.0
e 64 128 47.0
e 64 295 12.0
e 64 174 43.0
e 64 213 6.0
e 64 45 15.0
e 64 223 49.0
e 64 297 34.0
e 64 168 33.0
e 64 130 43.0
e 64 263 16.0
e 64 107 44.0
e 64 21 2.0
e 64 177 23.0
e 64 31 31.0
e 64 14 4.0
e 64 265 40.0
e 64 161 30.0
e 64 178 27.0
e 64 75 17.0
e 64 240 16.0
e 64 81 34.0
e 64 285 10.0
e 64 53 7.0
e 64 196 21.0
e 64 22 45.0
e 64 317 42.0
e 64 120 2.0
e 64 214 3.0
e 64 198 36.0
e 64 58 42.0
e 64 242 34.0
e 64 230 9.0
e 64 286 21.0
e 64 55 18.0
e 64 274 26.0
e 64 65 40.0
e 64 305 11.0
e 65 286 3.0
e 65 125 1.0
e 66 188 1.0
e 67 76 2.0
e 68 257 1.0
e 69 279 1.0
e 69 82 22.0
e 69 206 6.0
e 70 231 1.0
e 71 211 1.0
e 72 260 18.0
e 72 25 1.0
e 72 199 2.0
e 73 3 1.0
e 74 51 46.0
e 74 305 1.0
e 75 263 1.0
e 75 34 1.0
e 76 86 2.0
e 77 248 1.0
e 78 122 1.0
e 79 13 1.0
e 80 160 1.0
e 81 8 1.0
e 81 16 2.0
e 81 231 1.0
e 82 189 49.0
e 82 67 20.0
e 82 190 11.0
e 82 266 19.0
e 82 296 39.0
e 82 63 30.0
e 82 302 21.0
e 82 202 13.0
e 82 20 15.0
e 82 172 23.0
e 82 251 8.0
e 82 211 12.0
e 82 107 49.0
e 82 157 42.0
e 82 133 3.0
e 82 136 23.0
e 82 26 5.0
e 82 16 14.0
e 82 277 11.0
e 82 155 38.0
e 82 275 17.0
e 82 25 24.0
e 82 285 6.0
e 82 140 12.0
e 82 218 11.0
e 82 24 17.0
e 82 76 34.0
e 82 55 45.0
e 82 59 16.0
e 82 137 3.0
e 82 116 30.0
e 82 120 18.0
e 82 276 16.0
e 82 228 11.0
e 82 171 17.0
e 82 192 29.0
e 82 287 25.0
e 82 191 22.0
e 82 293 25.0
e 82 234 38.0
e 82 131 41.0
e 82 60 36.0
e 82 73 29.0
e 82 212 35.0
e 82 241 23.0
e 83 87 2.0
e 83 261 1.0
e 84 283 37.0
e 84 271 3.0
e 84 179 5.0
e 84 299 2.0
e 84 76 1.0
e 84 57 3.0
e 85 71 1.0
e 86 261 2.0
e 87 292 2.0
e 87 278 4.0
e 87 58 2.0
e 88 32 3.0
e 88 291 1.0
e 89 247 2.0
e 89 116 1.0
e 89 313 1.0
e 89 74 2.0
e 90 45 1.0
e 91 3 1.0
e 91 104 1.0
e 92 180 2.0
e 93 297 1.0
e 93 55 1.0
e 93 135 1.0
e 93 295 5.0
e 93 84 2.0
e 94 86 2.0
e 94 68 2.0
e 94 18 2.0
e 95 234 1.0
e 95 29 1.0
e 96 83 1.0
e 97 27 1.0
e 98 183 1.0
e 98 240 1.0
e 98 195 1.0
e 99 310 1.0
e 100 155 4.0
e 100 161 1.0
e 100 290 2.0
e 100 50 1.0
e 101 136 1.0
e 102 240 33.0
e 102 211 37.0
e 102 96 11.0
e 102 239 12.0
e 102 218 1.0
e 102 131 4.0
e 102 228 34.0
e 102 139 3.0
e 102 232 33.0
e 102 303 1.0
e 102 288 42.0
e 102 246 48.0
e 102 249 4.0
e 102 31 11.0
e 102 45 22.0
e 102 162 13.0
e 102 276 38.0
e 102 18 31.0
e 102 69 7.0
e 102 120 27.0
e 102 198 5.0
e 102 191 47.0
e 102 227 7.0
e 102 184 12.0
e 102 19 23.0
e 102 27 37.0
e 102 272 11.0
e 102 264 27.0
e 102 265 41.0
e 102 57 47.0
e 102 171 38.0
e 102 296 31.0
e 102 149 47.0
e 102 140 37.0
e 102 259 10.0
e 102 42 34.0
e 102 260 48.0
e 102 203 29.0
e 102 263 31.0
e 102 236 26.0
e 102 144 5.0
e 102 277 1.0
e 102 60 21.0
e 102 141 37.0
e 102 233 43.0
e 102 121 26.0
e 102 200 2.0
e 103 199 1.0
e 104 235 1.0
e 105 94 1.0
e 105 133 1.0
e 105 74 1.0
e 106 79 1.0
e 106 147 1.0
e 107 317 1.0
e 108 302 1.0
e 109 272 1.0
e 110 181 2.0
e 110 175 3.0
e 111 305 1.0
e 112 256 2.0
e 113 26 2.0
e 113 179 2.0
e 113 217 1.0
e 114 183 1.0
e 114 126 1.0
e 114 46 1.0
e 114 293 1.0
e 115 255 1.0
e 116 181 1.0
e 117 307 1.0
e 117 164 2.0
e 118 32 4.0
e 119 17 1.0
e 120 29 1.0
e 121 0 1.0
e 122 206 1.0
e 123 115 1.0
e 123 182 1.0
e 123 22 1.0
e 124 272 1.0
e 125 138 1.0
e 126 154 1.0
e 127 266 1.0
e 128 241 46.0
e 128 131 16.0
e 128 317 16.0
e 128 276 28.0
e 128 269 38.0
e 128 134 18.0
e 128 145 26.0
e 128 261 5.0
e 128 136 14.0
e 128 53 37.0
e 128 44 16.0
e 128 199 19.0
e 128 221 19.0
e 128 86 23.0
e 128 121 47.0
e 128 301 38.0
e 128 188 40.0
e 128 45 3.0
e 128 28 5.0
e 128 74 15.0
e 128 176 31.0
e 128 3 25.0
e 128 262 25.0
e 128 296 38.0
e 128 310 38.0
e 128 24 21.0
e 128 34 36.0
e 128 258 38.0
e 128 33 44.0
e 128 75 34.0
e 128 218 23.0
e 128 127 6.0
e 128 245 15.0
e 128 96 7.0
e 128 257 15.0
e 128 202 26.0
e 128 292 44.0
e 128 132 38.0
e 128 36 49.0
e 128 169 6.0
e 128 99 42.0
e 128 244 44.0
e 128 2 47.0
e 128 270 28.0
e 128 278 10.0
e 128 6 29.0
e 128 109 42.0
e 128 76 28.0
e 129 192 4.0
e 129 248 2.0
e 129 110 2.0
e 129 37 1.0
e 130 172 1.0
e 131 268 1.0
e 132 299 1.0
e 133 205 2.0
e 134 223 29.0
e 134 74 48.0
e 134 187 17.0
e 134 185 19.0
e 134 266 30.0
e 134 270 21.0
e 134 143 9.0
e 134 259 14.0
e 134 256 36.0
e 134 43 29.0
e 134 212 45.0
e 134 101 24.0
e 134 38 3.0
e 134 9 46.0
e 134 273 19.0
e 134 231 44.0
e 134 255 20.0
e 134 39 10.0
e 134 211 37.0
e 134 122 17.0
e 134 105 28.0
e 134 309 7.0
e 134 307 29.0
e 134 292 47.0
e 134 303 40.0
e 134 50 21.0
e 134 299 43.0
e 134 183 43.0
e 134 33 30.0
e 134 188 21.0
e 134 232 40.0
e 134 133 31.0
e 134 145 49.0
e 134 240 31.0
e 134 171 42.0
e 134 226 10.0
e 134 40 38.0
e 134 129 47.0
e 134 267 25.0
e 134 113 37.0
e 134 233 15.0
e 134 296 1.0
e 134 300 19.0
e 134 75 34.0
e 134 66 3.0
e 135 133 1.0
e 136 103 1.0
e 137 29 1.0
e 138 3 1.0
e 139 118 1.0
e 140 34 1.0
e 141 7 1.0
e 142 173 1.0
e 143 260 37.0
e 143 283 29.0
e 143 19 21.0
e 143 166 27.0
e 143 110 21.0
e 143 281 19.0
e 143 268 49.0
e 143 259 31.0
e 143 318 15.0
e 143 261 13.0
e 143 177 9.0
e 143 319 34.0
e 143 262 29.0
e 143 291 2.0
e 143 140 45.0
e 143 122 31.0
e 143 206 37.0
e 143 158 7.0
e 143 121 38.0
e 143 102 6.0
e 143 264 10.0
e 143 293 6.0
e 143 98 9.0
e 143 307 10.0
e 143 185 9.0
e 143 137 4.0
e 143 63 18.0
e 143 38 29.0
e 143 103 49.0
e 143 90 19.0
e 143 252 3.0
e 143 13 8.0
e 143 247 41.0
e 143 43 5.0
e 143 130 13.0
e 143 227 33.0
e 143 111 12.0
e 143 73 41.0
e 143 208 34.0
e 143 6 22.0
e 143 64 37.0
e 143 114 45.0
e 143 280 45.0
e 143 18 33.0
e 143 109 21.0
e 143 211 9.0
e 144 266 1.0
e 145 264 2.0
e 146 31 1.0
e 146 164 2.0
e 147 299 1.0
e 148 316 1.0
e 148 43 2.0
e 148 81 1.0
e 148 183 1.0
e 149 220 5.0
e 149 125 3.0
e 149 207 4.0
e 149 284 4.0
e 149 9 1.0
e 150 112 1.0
e 151 305 1.0
e 151 201 1.0
e 151 24 1.0
e 151 293 2.0
e 152 33 1.0
e 153 159 44.0
e 153 236 8.0
e 153 166 24.0
e 153 238 42.0
e 153 169 37.0
e 153 305 36.0
e 153 257 43.0
e 153 253 29.0
e 153 170 42.0
e 153 143 31.0
e 153 212 39.0
e 153 84 21.0
e 153 223 49.0
e 153 90 22.0
e 153 21 47.0
e 153 96 29.0
e 153 214 35.0
e 153 277 33.0
e 153 129 32.0
e 153 206 16.0
e 153 34 27.0
e 153 111 8.0
e 153 213 16.0
e 153 155 17.0
e 153 132 41.0
e 153 244 29.0
e 153 13 41.0
e 153 41 4.0
e 153 8 20.0
e 153 43 19.0
e 153 123 2.0
e 153 114 11.0
e 153 87 21.0
e 153 297 25.0
e 153 55 31.0
e 153 203 17.0
e 153 303 10.0
e 153 66 14.0
e 153 202 46.0
e 153 290 32.0
e 153 156 13.0
e 153 108 18.0
e 153 281 34.0
e 153 190 29.0
e 153 274 12.0
e 153 2 3.0
e 154 232 2.0
e 155 1 7.0
e 155 310 33.0
e 155 79 5.0
e 155 217 20.0
e 155 132 39.0
e 155 184 19.0
e 155 192 22.0
e 155 72 22.0
e 155 137 17.0
e 155 163 10.0
e 155 186 12.0
e 155 56 6.0
e 155 173 19.0
e 155 176 35.0
e 155 232 11.0
e 155 180 45.0
e 155 270 45.0
e 155 23 47.0
e 155 187 3.0
e 155 160 1.0
e 155 13 44.0
e 155 63 8.0
e 155 108 6.0
e 155 45 23.0
e 155 170 46.0
e 155 305 31.0
e 155 172 44.0
e 155 146 23.0
e 155 248 19.0
e 155 296 18.0
e 155 205 20.0
e 155 174 2.0
e 155 130 10.0
e 155 120 4.0
e 155 53 5.0
e 155 175 36.0
e 155 110 40.0
e 155 167 24.0
e 155 236 19.0
e 155 273 44.0
e 155 257 19.0
e 155 309 25.0
e 155 298 24.0
e 155 212 16.0
e 155 159 38.0
e 155 87 23.0
e 156 183 1.0
e 157 85 1.0
e 157 194 1.0
e 158 154 3.0
e 159 106 1.0
e 160 306 2.0
e 161 140 1.0
e 162 200 1.0
e 163 242 41.0
e 163 219 1.0
e 163 283 33.0
e 163 167 46.0
e 163 161 17.0
e 163 2 21.0
e 163 197 5.0
e 163 73 41.0
e 163 32 33.0
e 163 127 49.0
e 163 231 6.0
e 163 131 43.0
e 163 162 42.0
e 163 85 44.0
e 163 134 25.0
e 163 43 30.0
e 163 83 49.0
e 163 184 10.0
e 163 230 23.0
e 163 247 20.0
e 163 301 9.0
e 163 271 2.0
e 163 64 15.0
e 163 116 4.0
e 163 166 35.0
e 163 100 43.0
e 163 221 45.0
e 163 281 33.0
e 163 241 21.0
e 163 24 28.0
e 163 172 30.0
e 163 191 22.0
e 163 0 23.0
e 163 222 42.0
e 163 285 39.0
e 163 14 1.0
e 163 250 46.0
e 163 164 32.0
e 163 214 19.0
e 163 308 15.0
e 163 198 42.0
e 163 245 42.0
e 163 277 24.0
e 163 182 32.0
e 163 11 34.0
e 163 21 28.0
e 164 7 2.0
e 165 99 1.0
e 166 2 1.0
e 167 218 6.0
e 168 103 2.0
e 169 186 1.0
e 170 270 2.0
e 171 37 2.0
e 172 156 1.0
e 173 74 2.0
e 174 67 1.0
e 175 190 1.0
e 176 250 1.0
e 177 223 5.0
e 178 15 2.0
e 179 257 2.0
e 180 42 2.0
e 180 132 1.0
e 181 61 1.0
e 182 150 2.0
e 183 17 1.0
e 184 165 2.0
e 185 164 1.0
e 186 300 2.0
e 187 256 3.0
e 188 311 31.0
e 188 80 3.0
e 189 226 2.0
e 189 180 1.0
e 189 244 1.0
e 190 238 1.0
e 191 41 1.0
e 192 174 35.0
e 192 150 43.0
e 192 284 7.0
e 192 220 29.0
e 192 206 29.0
e 192 222 8.0
e 192 79 27.0
e 192 64 23.0
e 192 238 40.0
e 192 99 37.0
e 192 312 32.0
e 192 196 36.0
e 192 239 10.0
e 192 175 22.0
e 192 133 29.0
e 192 186 13.0
e 192 310 47.0
e 192 303 28.0
e 192 179 13.0
e 192 63 36.0
e 192 149 14.0
e 192 218 20.0
e 192 307 48.0
e 192 88 47.0
e 192 250 16.0
e 192 104 17.0
e 192 50 15.0
e 192 100 17.0
e 192 96 3.0
e 192 266 26.0
e 192 58 25.0
e 192 94 16.0
e 192 9 29.0
e 192 256 41.0
e 192 87 5.0
e 192 265 25.0
e 192 23 25.0
e 192 19 24.0
e 192 119 45.0
e 192 227 46.0
e 192 143 8.0
e 192 261 28.0
e 192 85 42.0
e 192 201 8.0
e 192 258 25.0
e 193 279 2.0
e 193 308 1.0
e 193 82 41.0
e 194 97 1.0
e 195 281 1.0
e 196 82 12.0
e 197 168 1.0
e 198 264 2.0
e 199 39 2.0
e 200 245 2.0
e 201 270 5.0
e 202 237 1.0
e 203 310 2.0
e 204 243 1.0
e 205 127 3.0
e 206 134 43.0
e 206 146 3.0
e 206 7 12.0
e 206 135 6.0
e 207 52 43.0
e 207 152 1.0
e 207 216 2.0
e 208 295 1.0
e 209 19 1.0
e 210 73 1.0
e 210 209 2.0
e 211 50 1.0
e 212 92 1.0
e 213 55 2.0
e 214 165 1.0
e 215 187 1.0
e 216 50 1.0
e 217 173 1.0
e 217 176 1.0
e 218 196 2.0
e 219 316 1.0
e 220 159 1.0
e 221 30 2.0
e 222 136 1.0
e 223 68 2.0
e 223 182 4.0
e 223 291 3.0
e 224 247 1.0
e 225 134 47.0
e 225 257 3.0
e 226 194 1.0
e 227 38 1.0
e 228 181 1.0
e 229 213 1.0
e 229 196 3.0
e 229 198 1.0
e 230 13 1.0
e 231 10 2.0
e 232 38 1.0
e 233 154 1.0
e 234 241 2.0
e 235 313 1.0
e 236 239 1.0
e 237 220 1.0
e 238 253 1.0
e 239 76 1.0
e 240 257 1.0
e 241 34 1.0
e 242 270 1.0
e 243 269 1.0
e 244 183 1.0
e 245 221 2.0
e 246 242 1.0
e 246 63 2.0
e 247 0 1.0
e 248 286 1.0
e 249 99 1.0
e 250 75 1.0
e 251 8 1.0
e 252 93 5.0
e 252 251 2.0
e 253 201 1.0
e 254 212 1.0
e 255 169 1.0
e 256 209 1.0
e 257 212 2.0
e 258 216 1.0
e 259 70 1.0
e 260 203 32.0
e 260 14 11.0
e 260 8 49.0
e 260 123 21.0
e 260 49 12.0
e 260 115 30.0
e 260 190 46.0
e 260 98 18.0
e 260 65 41.0
e 260 259 18.0
e 260 4 49.0
e 260 11 23.0
e 260 307 11.0
e 260 138 2.0
e 260 55 40.0
e 260 290 25.0
e 260 171 26.0
e 260 39 31.0
e 260 106 41.0
e 260 209 34.0
e 260 43 38.0
e 260 153 49.0
e 260 150 3.0
e 260 71 45.0
e 260 38 39.0
e 260 60 25.0
e 260 184 5.0
e 260 16 35.0
e 260 231 5.0
e 260 108 31.0
e 260 124 36.0
e 260 137 10.0
e 260 255 24.0
e 260 107 23.0
e 260 286 24.0
e 260 199 46.0
e 260 159 23.0
e 260 48 38.0
e 260 245 27.0
e 260 81 10.0
e 260 240 39.0
e 260 177 32.0
e 260 56 14.0
e 260 172 19.0
e 261 215 1.0
e 262 54 33.0
e 262 77 2.0
e 263 242 1.0
e 264 6 1.0
e 265 134 28.0
e 266 243 1.0
e 267 133 2.0
e 268 3 2.0
e 269 55 1.0
e 270 183 1.0
e 271 258 1.0
e 272 175 2.0
e 273 215 1.0
e 274 47 1.0
e 275 154 1.0
e 276 284 1.0
e 277 8 3.0
e 278 44 37.0
e 278 250 38.0
e 278 113 24.0
e 278 281 42.0
e 278 296 32.0
e 278 173 24.0
e 278 203 13.0
e 278 163 4.0
e 278 58 5.0
e 278 286 47.0
e 278 256 23.0
e 278 207 39.0
e 278 212 21.0
e 278 31 48.0
e 278 109 31.0
e 278 126 47.0
e 278 204 3.0
e 278 201 34.0
e 278 205 26.0
e 278 96 26.0
e 278 92 38.0
e 278 32 41.0
e 278 238 31.0
e 278 53 6.0
e 278 110 25.0
e 278 174 44.0
e 278 263 1.0
e 278 121 9.0
e 278 182 32.0
e 278 70 23.0
e 278 13 28.0
e 278 177 21.0
e 278 185 18.0
e 278 129 38.0
e 278 220 47.0
e 278 282 7.0
e 278 101 23.0
e 278 206 32.0
e 278 288 4.0
e 278 200 12.0
e 278 221 2.0
e 278 90 35.0
e 278 261 15.0
e 278 298 35.0
e 278 93 7.0
e 279 237 1.0
e 280 231 1.0
e 280 83 1.0
e 280 87 1.0
e 281 247 1.0
e 282 258 2.0
e 282 227 1.0
e 283 41 26.0
e 283 186 7.0
e 283 104 32.0
e 283 204 42.0
e 283 172 27.0
e 283 225 5.0
e 283 35 13.0
e 283 302 9.0
e 283 25 42.0
e 283 39 38.0
e 283 214 24.0
e 283 77 1.0
e 283 78 16.0
e 283 117 44.0
e 283 202 22.0
e 283 183 34.0
e 283 297 44.0
e 283 293 47.0
e 283 67 21.0
e 283 57 29.0
e 283 93 6.0
e 283 195 8.0
e 283 137 11.0
e 283 303 33.0
e 283 6 43.0
e 283 222 16.0
e 283 56 7.0
e 283 304 49.0
e 283 102 49.0
e 283 184 41.0
e 283 215 48.0
e 283 33 27.0
e 283 7 24.0
e 283 34 22.0
e 283 106 33.0
e 283 234 47.0
e 283 187 10.0
e 283 112 43.0
e 283 165 11.0
e 283 49 6.0
e 283 267 44.0
e 283 10 39.0
e 283 188 35.0
e 283 212 46.0
e 284 5 3.0
e 285 164 1.0
e 286 8 1.0
e 287 86 1.0
e 288 264 9.0
e 288 273 24.0
e 288 98 18.0
e 288 286 34.0
e 288 203 14.0
e 288 135 31.0
e 288 184 46.0
e 288 129 27.0
e 288 27 4.0
e 288 97 6.0
e 288 155 2.0
e 288 280 13.0
e 288 281 44.0
e 288 153 49.0
e 288 282 10.0
e 288 93 12.0
e 288 88 15.0
e 288 235 13.0
e 288 186 19.0
e 288 62 47.0
e 288 83 47.0
e 288 59 28.0
e 288 227 28.0
e 288 228 45.0
e 288 99 9.0
e 288 45 27.0
e 288 103 12.0
e 288 94 26.0
e 288 112 26.0
e 288 259 38.0
e 288 58 23.0
e 288 40 28.0
e 288 270 47.0
e 288 154 18.0
e 288 9 37.0
e 288 236 44.0
e 288 316 20.0
e 288 247 17.0
e 288 130 49.0
e 288 214 1.0
e 288 311 12.0
e 288 262 22.0
e 288 287 29.0
e 289 201 1.0
e 289 214 1.0
e 290 107 1.0
e 291 287 1.0
e 292 92 1.0
e 293 101 1.0
e 294 52 9.0
e 294 21 1.0
e 294 71 1.0
e 295 54 44.0
e 296 271 1.0
e 297 265 2.0
e 298 173 1.0
e 299 96 1.0
e 300 316 1.0
e 301 10 1.0
e 302 166 1.0
e 303 273 1.0
e 304 234 2.0
e 304 162 3.0
e 304 92 2.0
e 304 287 4.0
e 304 205 1.0
e 305 3 1.0
e 306 238 1.0
e 307 213 1.0
e 308 281 1.0
e 309 184 1.0
e 310 92 1.0
e 311 97 49.0
e 311 270 39.0
e 311 5 8.0
e 311 91 38.0
e 311 19 44.0
e 311 140 2.0
e 311 310 38.0
e 311 56 33.0
e 311 133 20.0
e 311 201 29.0
e 311 264 46.0
e 311 265 29.0
e 311 99 17.0
e 311 131 21.0
e 311 189 20.0
e 311 175 24.0
e 311 57 35.0
e 311 304 21.0
e 311 210 45.0
e 311 224 23.0
e 311 98 11.0
e 311 110 30.0
e 311 271 24.0
e 311 206 15.0
e 311 12 23.0
e 311 183 48.0
e 311 204 15.0
e 311 78 49.0
e 311 197 13.0
e 311 312 40.0
e 311 208 11.0
e 311 81 11.0
e 311 49 25.0
e 311 33 8.0
e 311 266 9.0
e 311 8 26.0
e 311 51 10.0
e 311 76 25.0
e 311 226 28.0
e 311 120 18.0
e 311 318 41.0
e 311 290 7.0
e 311 179 43.0
e 311 84 16.0
e 312 286 2.0
e 313 156 1.0
e 314 105 1.0
e 315 163 23.0
e 315 230 1.0
e 315 9 2.0
e 315 42 3.0
e 316 131 1.0
e 317 267 1.0
e 318 313 1.0
e 319 314 1.0
e 319 112 2.0
e 319 255 1.0
